DIMACS2
20 35 151 91 22 20 77 61 99 58 120 64 134 88 23 36 131 28 153 31 25
p edge 160 1227
e 0 111 1.0
e 0 143 1.0
e 0 120 4.0
e 0 65 1.0
e 0 23 2.0
e 0 21 1.0
e 0 57 1.0
e 0 32 1.0
e 1 37 1.0
e 1 116 1.0
e 1 32 1.0
e 1 123 1.0
e 1 33 1.0
e 1 50 1.0
e 1 25 40.0
e 1 41 1.0
e 2 44 1.0
e 2 126 1.0
e 2 58 2.0
e 2 7 1.0
e 2 98 1.0
e 2 24 1.0
e 2 91 48.0
e 2 139 1.0
e 3 43 2.0
e 3 133 2.0
e 3 76 2.0
e 3 93 2.0
e 3 115 1.0
e 3 38 1.0
e 3 158 1.0
e 3 107 1.0
e 4 6 1.0
e 4 102 1.0
e 4 9 1.0
e 4 2 1.0
e 4 96 2.0
e 4 70 1.0
e 4 104 2.0
e 4 49 1.0
e 5 43 1.0
e 5 34 1.0
e 5 111 1.0
e 5 67 1.0
e 5 60 1.0
e 5 61 47.0
e 5 142 1.0
e 5 48 1.0
e 6 34 1.0
e 6 81 1.0
e 6 139 1.0
e 6 39 1.0
e 6 20 3.0
e 6 64 43.0
e 6 8 1.0
e 6 155 1.0
e 7 26 1.0
e 7 57 1.0
e 7 48 1.0
e 7 148 1.0
e 7 60 2.0
e 7 89 1.0
e 7 87 1.0
e 7 154 1.0
e 8 10 1.0
e 8 85 1.0
e 8 107 2.0
e 8 156 1.0
e 8 151 18.0
e 8 2 1.0
e 8 121 2.0
e 8 117 1.0
e 9 5 1.0
e 9 29 1.0
e 9 98 1.0
e 9 28 36.0
e 9 6 1.0
e 9 64 22.0
e 9 155 1.0
e 9 79 1.0
e 10 101 1.0
e 10 29 1.0
e 10 33 1.0
e 10 97 1.0
e 10 35 18.0
e 10 134 15.0
e 10 116 1.0
e 10 145 1.0
e 11 98 1.0
e 11 119 1.0
e 11 64 32.0
e 11 29 1.0
e 11 60 2.0
e 11 117 1.0
e 11 88 48.0
e 11 30 2.0
e 12 149 1.0
e 12 116 1.0
e 12 41 1.0
e 12 82 1.0
e 12 62 1.0
e 12 144 1.0
e 12 68 1.0
e 13 63 1.0
e 13 1 1.0
e 13 101 1.0
e 13 118 1.0
e 13 124 1.0
e 13 25 18.0
e 13 28 9.0
e 13 43 1.0
e 14 57 1.0
e 14 22 39.0
e 14 26 1.0
e 14 154 1.0
e 14 71 1.0
e 14 31 32.0
e 14 39 1.0
e 14 146 1.0
e 15 43 1.0
e 15 101 1.0
e 15 112 1.0
e 15 79 1.0
e 15 19 1.0
e 15 115 1.0
e 15 61 46.0
e 15 88 42.0
e 16 149 1.0
e 16 62 1.0
e 16 73 1.0
e 16 72 2.0
e 16 63 1.0
e 16 90 2.0
e 16 138 1.0
e 16 74 1.0
e 17 63 1.0
e 17 5 1.0
e 17 45 1.0
e 17 57 1.0
e 17 91 49.0
e 17 158 2.0
e 17 2 1.0
e 18 21 1.0
e 18 7 1.0
e 18 28 37.0
e 18 69 1.0
e 18 133 1.0
e 18 104 1.0
e 18 146 1.0
e 18 132 1.0
e 19 105 1.0
e 19 57 1.0
e 19 79 1.0
e 19 90 2.0
e 19 25 16.0
e 19 155 1.0
e 19 51 1.0
e 20 19 33.0
e 20 70 24.0
e 20 93 29.0
e 20 35 11.0
e 20 27 10.0
e 20 94 20.0
e 20 59 48.0
e 20 3 49.0
e 21 102 1.0
e 21 60 1.0
e 21 44 1.0
e 21 28 40.0
e 21 147 1.0
e 21 47 1.0
e 21 6 1.0
e 21 100 1.0
e 22 31 22.0
e 22 111 12.0
e 22 104 7.0
e 22 84 8.0
e 22 140 21.0
e 22 17 31.0
e 22 93 26.0
e 22 105 2.0
e 23 10 39.0
e 23 77 24.0
e 23 151 26.0
e 23 127 40.0
e 23 93 35.0
e 23 95 7.0
e 23 81 18.0
e 23 123 18.0
e 24 113 1.0
e 24 135 1.0
e 24 116 1.0
e 24 39 1.0
e 24 148 1.0
e 24 112 1.0
e 24 123 1.0
e 24 127 1.0
e 25 41 20.0
e 25 60 14.0
e 25 126 38.0
e 25 78 39.0
e 25 91 21.0
e 25 53 31.0
e 25 121 9.0
e 25 6 38.0
e 26 48 2.0
e 26 47 2.0
e 26 118 1.0
e 26 133 1.0
e 26 144 2.0
e 26 142 1.0
e 26 124 1.0
e 26 19 1.0
e 27 55 1.0
e 27 124 2.0
e 27 156 2.0
e 27 105 1.0
e 27 66 1.0
e 27 60 2.0
e 27 98 3.0
e 27 111 2.0
e 28 56 32.0
e 28 131 35.0
e 28 127 34.0
e 28 85 24.0
e 28 90 15.0
e 28 2 41.0
e 28 16 3.0
e 28 10 45.0
e 29 48 1.0
e 29 97 1.0
e 29 76 1.0
e 29 124 1.0
e 29 0 1.0
e 29 112 1.0
e 29 90 1.0
e 30 55 2.0
e 30 56 2.0
e 30 151 19.0
e 30 86 1.0
e 30 152 1.0
e 30 39 1.0
e 30 62 2.0
e 30 110 2.0
e 31 38 49.0
e 31 94 36.0
e 31 103 11.0
e 31 55 13.0
e 31 51 7.0
e 31 78 11.0
e 31 91 41.0
e 31 32 2.0
e 32 100 1.0
e 32 6 1.0
e 32 146 1.0
e 32 93 1.0
e 32 108 1.0
e 32 29 1.0
e 32 95 1.0
e 32 109 1.0
e 33 75 1.0
e 33 143 1.0
e 33 105 1.0
e 33 107 3.0
e 33 118 1.0
e 33 69 1.0
e 33 87 1.0
e 33 106 1.0
e 34 4 1.0
e 34 97 1.0
e 34 129 1.0
e 34 22 21.0
e 34 76 1.0
e 34 138 1.0
e 34 90 1.0
e 35 155 45.0
e 35 106 10.0
e 35 101 30.0
e 35 5 45.0
e 35 114 15.0
e 35 150 17.0
e 35 97 45.0
e 35 55 48.0
e 36 12 11.0
e 36 39 17.0
e 36 75 31.0
e 36 130 23.0
e 36 150 7.0
e 36 71 6.0
e 36 1 26.0
e 36 37 13.0
e 37 4 1.0
e 37 60 1.0
e 37 20 34.0
e 37 97 1.0
e 37 53 1.0
e 37 92 1.0
e 37 158 1.0
e 37 113 1.0
e 38 91 1.0
e 38 130 1.0
e 38 134 26.0
e 38 40 2.0
e 38 21 1.0
e 38 16 1.0
e 38 125 1.0
e 39 35 12.0
e 39 127 1.0
e 39 49 1.0
e 39 86 1.0
e 39 102 1.0
e 39 76 1.0
e 39 4 1.0
e 40 39 1.0
e 40 33 1.0
e 40 84 2.0
e 40 41 1.0
e 40 137 2.0
e 40 146 1.0
e 40 129 1.0
e 40 14 3.0
e 41 3 2.0
e 41 93 1.0
e 41 140 1.0
e 41 84 1.0
e 41 137 1.0
e 41 125 1.0
e 41 120 18.0
e 41 58 31.0
e 42 68 2.0
e 42 158 2.0
e 42 150 2.0
e 42 126 1.0
e 42 120 49.0
e 42 45 1.0
e 42 133 1.0
e 42 17 2.0
e 43 46 2.0
e 43 32 1.0
e 43 113 1.0
e 43 50 2.0
e 43 84 1.0
e 43 148 1.0
e 43 21 1.0
e 43 121 1.0
e 44 40 1.0
e 44 52 2.0
e 44 14 1.0
e 44 26 1.0
e 44 68 1.0
e 44 4 1.0
e 44 80 1.0
e 44 13 1.0
e 45 48 2.0
e 45 110 1.0
e 45 100 1.0
e 45 43 1.0
e 45 149 1.0
e 45 108 1.0
e 45 9 1.0
e 45 128 1.0
e 46 55 1.0
e 46 45 2.0
e 46 146 1.0
e 46 2 1.0
e 46 109 3.0
e 46 36 7.0
e 46 128 1.0
e 46 59 1.0
e 47 148 1.0
e 47 11 2.0
e 47 9 1.0
e 47 58 21.0
e 47 30 1.0
e 47 114 1.0
e 47 157 1.0
e 47 130 2.0
e 48 152 1.0
e 48 15 1.0
e 48 30 1.0
e 48 87 2.0
e 48 32 1.0
e 48 65 1.0
e 48 31 47.0
e 48 109 2.0
e 49 67 1.0
e 49 139 1.0
e 49 5 1.0
e 49 46 2.0
e 49 102 1.0
e 49 24 1.0
e 49 131 29.0
e 49 113 1.0
e 50 84 1.0
e 50 80 1.0
e 50 100 1.0
e 50 57 1.0
e 50 118 2.0
e 50 130 2.0
e 50 58 26.0
e 51 40 2.0
e 51 119 2.0
e 51 138 1.0
e 51 46 1.0
e 51 13 1.0
e 51 97 1.0
e 51 16 1.0
e 52 43 2.0
e 52 26 2.0
e 52 146 1.0
e 52 17 1.0
e 52 151 44.0
e 52 142 1.0
e 52 116 1.0
e 52 70 1.0
e 53 5 1.0
e 53 132 2.0
e 53 114 1.0
e 53 55 1.0
e 53 72 1.0
e 53 24 1.0
e 53 147 1.0
e 53 133 1.0
e 54 31 37.0
e 54 82 1.0
e 54 24 1.0
e 54 47 2.0
e 54 130 1.0
e 54 17 1.0
e 54 156 1.0
e 54 120 46.0
e 55 119 1.0
e 55 133 1.0
e 55 87 1.0
e 55 131 23.0
e 55 9 1.0
e 55 116 1.0
e 55 76 1.0
e 55 95 1.0
e 56 79 1.0
e 56 115 1.0
e 56 135 1.0
e 56 51 1.0
e 56 99 42.0
e 56 138 1.0
e 56 13 1.0
e 56 108 1.0
e 57 90 2.0
e 57 61 24.0
e 57 44 1.0
e 57 128 1.0
e 57 151 23.0
e 57 105 1.0
e 57 141 1.0
e 57 112 1.0
e 58 49 9.0
e 58 97 37.0
e 58 118 28.0
e 58 77 31.0
e 58 135 11.0
e 58 40 11.0
e 58 43 36.0
e 58 115 47.0
e 59 3 1.0
e 59 152 1.0
e 59 135 2.0
e 59 74 1.0
e 59 26 2.0
e 59 110 1.0
e 59 138 1.0
e 59 100 1.0
e 60 38 3.0
e 60 101 1.0
e 60 9 2.0
e 60 111 1.0
e 60 118 1.0
e 60 96 1.0
e 60 79 1.0
e 61 45 43.0
e 61 8 12.0
e 61 21 19.0
e 61 132 1.0
e 61 32 15.0
e 61 49 48.0
e 61 119 49.0
e 62 38 2.0
e 62 43 2.0
e 62 60 1.0
e 62 99 40.0
e 62 45 1.0
e 62 5 2.0
e 62 90 2.0
e 62 2 1.0
e 63 22 31.0
e 63 96 1.0
e 63 14 1.0
e 63 84 1.0
e 63 70 1.0
e 63 99 16.0
e 63 0 1.0
e 63 57 1.0
e 64 7 34.0
e 64 145 25.0
e 64 142 15.0
e 64 114 33.0
e 64 34 30.0
e 64 135 21.0
e 64 103 18.0
e 64 73 34.0
e 65 98 2.0
e 65 9 2.0
e 65 129 1.0
e 65 44 1.0
e 65 24 2.0
e 65 113 1.0
e 65 135 1.0
e 65 93 2.0
e 66 16 2.0
e 66 30 1.0
e 66 45 1.0
e 66 156 1.0
e 66 53 1.0
e 66 51 1.0
e 66 43 1.0
e 67 134 35.0
e 67 153 25.0
e 67 40 2.0
e 67 19 1.0
e 67 53 1.0
e 67 31 46.0
e 67 83 2.0
e 67 38 1.0
e 68 64 3.0
e 68 107 1.0
e 68 136 1.0
e 68 101 1.0
e 68 20 46.0
e 68 46 1.0
e 68 66 1.0
e 69 16 1.0
e 69 71 1.0
e 69 146 1.0
e 69 106 1.0
e 69 87 1.0
e 69 56 1.0
e 69 88 33.0
e 69 28 4.0
e 70 96 1.0
e 70 61 21.0
e 70 135 1.0
e 70 107 2.0
e 70 25 24.0
e 70 6 1.0
e 70 120 47.0
e 70 31 15.0
e 71 133 1.0
e 71 10 1.0
e 71 67 1.0
e 71 3 1.0
e 71 146 1.0
e 71 145 1.0
e 71 110 1.0
e 71 22 22.0
e 72 6 1.0
e 72 120 5.0
e 72 147 1.0
e 72 20 48.0
e 72 80 1.0
e 72 108 1.0
e 72 119 1.0
e 72 63 1.0
e 73 79 1.0
e 73 121 1.0
e 73 59 1.0
e 73 9 1.0
e 73 67 1.0
e 73 43 1.0
e 73 30 1.0
e 73 35 8.0
e 74 54 1.0
e 74 39 1.0
e 74 72 1.0
e 74 15 1.0
e 74 47 2.0
e 74 109 1.0
e 74 60 1.0
e 74 1 1.0
e 75 119 1.0
e 75 133 1.0
e 75 155 1.0
e 75 96 2.0
e 75 157 1.0
e 75 43 2.0
e 75 47 2.0
e 75 94 1.0
e 76 123 1.0
e 76 98 1.0
e 76 131 38.0
e 76 99 7.0
e 76 24 1.0
e 76 110 1.0
e 76 105 1.0
e 76 81 1.0
e 77 4 2.0
e 77 45 30.0
e 77 35 16.0
e 77 156 24.0
e 77 57 38.0
e 77 12 36.0
e 77 78 10.0
e 78 14 1.0
e 78 141 1.0
e 78 0 1.0
e 78 45 1.0
e 78 152 1.0
e 78 10 1.0
e 78 150 1.0
e 78 100 1.0
e 79 63 1.0
e 79 91 28.0
e 79 143 1.0
e 79 80 1.0
e 79 106 1.0
e 79 148 1.0
e 79 88 43.0
e 79 1 1.0
e 80 119 1.0
e 80 104 1.0
e 80 32 1.0
e 80 126 1.0
e 80 92 1.0
e 80 28 16.0
e 80 77 7.0
e 80 52 2.0
e 81 31 42.0
e 81 93 1.0
e 81 67 1.0
e 81 41 1.0
e 81 54 1.0
e 81 36 8.0
e 81 61 10.0
e 81 11 1.0
e 82 55 1.0
e 82 30 2.0
e 82 71 1.0
e 82 149 1.0
e 82 151 6.0
e 82 23 7.0
e 82 36 16.0
e 82 90 1.0
e 83 103 1.0
e 83 110 2.0
e 83 143 2.0
e 83 34 1.0
e 83 46 1.0
e 83 39 1.0
e 84 127 1.0
e 84 118 1.0
e 84 150 1.0
e 84 142 1.0
e 84 2 1.0
e 84 12 1.0
e 84 87 1.0
e 85 59 2.0
e 85 18 1.0
e 85 19 1.0
e 85 154 1.0
e 85 14 1.0
e 85 136 1.0
e 85 69 1.0
e 85 124 1.0
e 86 38 1.0
e 86 76 1.0
e 86 68 1.0
e 86 89 1.0
e 86 152 1.0
e 86 146 1.0
e 86 133 1.0
e 86 56 1.0
e 87 117 1.0
e 87 54 1.0
e 87 27 1.0
e 87 13 1.0
e 87 113 1.0
e 87 2 1.0
e 87 3 1.0
e 87 6 1.0
e 88 49 26.0
e 88 91 44.0
e 88 143 5.0
e 88 124 27.0
e 88 22 30.0
e 88 4 13.0
e 88 85 23.0
e 88 81 49.0
e 89 147 1.0
e 89 52 1.0
e 89 103 1.0
e 89 1 1.0
e 89 38 1.0
e 89 74 1.0
e 89 6 1.0
e 89 90 2.0
e 90 87 2.0
e 90 13 1.0
e 90 67 1.0
e 90 95 3.0
e 90 66 2.0
e 90 48 2.0
e 91 54 33.0
e 91 71 28.0
e 91 75 2.0
e 91 94 38.0
e 91 64 4.0
e 91 6 26.0
e 91 102 17.0
e 91 85 19.0
e 92 103 1.0
e 92 74 1.0
e 92 44 1.0
e 92 110 1.0
e 92 75 1.0
e 92 65 1.0
e 92 113 1.0
e 93 103 1.0
e 93 155 1.0
e 93 143 1.0
e 93 62 2.0
e 93 31 17.0
e 93 16 2.0
e 93 27 1.0
e 94 21 1.0
e 94 70 1.0
e 94 38 1.0
e 94 60 2.0
e 94 19 1.0
e 94 3 2.0
e 94 92 1.0
e 94 1 1.0
e 95 16 1.0
e 95 73 1.0
e 95 129 1.0
e 95 83 1.0
e 95 91 9.0
e 96 129 2.0
e 96 107 1.0
e 96 87 2.0
e 96 124 2.0
e 96 151 41.0
e 96 68 2.0
e 96 78 1.0
e 96 121 2.0
e 97 3 1.0
e 97 26 1.0
e 97 28 46.0
e 97 94 1.0
e 97 109 1.0
e 97 64 17.0
e 97 143 1.0
e 97 2 1.0
e 98 112 1.0
e 98 136 1.0
e 98 123 1.0
e 98 38 1.0
e 98 43 2.0
e 98 54 1.0
e 98 151 6.0
e 98 61 16.0
e 99 6 10.0
e 99 70 43.0
e 99 79 15.0
e 99 58 35.0
e 99 7 39.0
e 99 145 25.0
e 99 124 22.0
e 99 83 5.0
e 100 79 1.0
e 100 27 1.0
e 100 123 1.0
e 100 58 14.0
e 100 138 2.0
e 100 119 1.0
e 100 143 1.0
e 100 44 1.0
e 101 3 1.0
e 101 32 1.0
e 101 25 6.0
e 101 131 17.0
e 101 144 1.0
e 101 23 24.0
e 102 83 1.0
e 102 89 1.0
e 102 20 32.0
e 102 145 1.0
e 102 72 1.0
e 102 137 1.0
e 102 65 1.0
e 102 153 49.0
e 103 153 9.0
e 103 106 1.0
e 103 141 1.0
e 103 16 1.0
e 103 28 34.0
e 103 90 2.0
e 103 97 1.0
e 104 84 2.0
e 104 125 2.0
e 104 3 1.0
e 104 2 1.0
e 104 86 1.0
e 104 5 2.0
e 104 75 1.0
e 105 39 1.0
e 105 42 2.0
e 105 13 1.0
e 105 104 1.0
e 105 7 1.0
e 105 99 45.0
e 106 133 1.0
e 106 19 1.0
e 106 123 1.0
e 106 151 16.0
e 106 63 1.0
e 106 61 23.0
e 106 131 8.0
e 106 17 1.0
e 107 72 2.0
e 107 9 1.0
e 107 10 1.0
e 107 37 2.0
e 107 117 3.0
e 107 26 1.0
e 107 53 2.0
e 107 95 1.0
e 108 66 1.0
e 108 44 1.0
e 108 35 48.0
e 108 31 31.0
e 108 48 1.0
e 108 156 1.0
e 108 42 2.0
e 108 125 1.0
e 109 126 1.0
e 109 69 1.0
e 109 82 1.0
e 109 143 1.0
e 109 72 1.0
e 109 52 2.0
e 109 98 1.0
e 109 108 1.0
e 110 57 1.0
e 110 145 1.0
e 110 12 1.0
e 110 18 1.0
e 110 154 1.0
e 110 80 1.0
e 110 5 1.0
e 110 41 1.0
e 111 138 3.0
e 111 21 1.0
e 111 52 3.0
e 111 9 1.0
e 111 61 37.0
e 111 57 1.0
e 111 140 1.0
e 112 64 13.0
e 112 50 2.0
e 112 22 8.0
e 112 99 7.0
e 112 124 1.0
e 112 110 1.0
e 112 37 1.0
e 112 140 1.0
e 113 51 2.0
e 113 81 1.0
e 113 22 42.0
e 113 130 1.0
e 113 155 1.0
e 113 112 1.0
e 113 153 13.0
e 114 142 1.0
e 114 95 1.0
e 114 92 1.0
e 114 52 2.0
e 114 77 2.0
e 114 51 2.0
e 114 99 26.0
e 114 16 2.0
e 115 82 1.0
e 115 124 1.0
e 115 155 1.0
e 115 20 43.0
e 115 90 1.0
e 115 65 2.0
e 115 64 17.0
e 115 51 2.0
e 116 151 9.0
e 116 20 10.0
e 116 132 2.0
e 116 61 7.0
e 116 92 1.0
e 116 32 1.0
e 116 138 2.0
e 117 118 1.0
e 117 130 1.0
e 117 112 1.0
e 117 116 1.0
e 117 96 1.0
e 117 59 1.0
e 117 132 1.0
e 117 143 1.0
e 118 131 18.0
e 118 85 1.0
e 118 82 1.0
e 118 127 1.0
e 118 154 1.0
e 118 12 1.0
e 118 41 1.0
e 118 113 1.0
e 119 66 1.0
e 119 150 1.0
e 119 118 1.0
e 119 152 1.0
e 119 146 1.0
e 119 53 1.0
e 120 45 13.0
e 120 100 43.0
e 120 112 22.0
e 120 107 11.0
e 120 102 27.0
e 120 38 7.0
e 120 34 41.0
e 121 144 1.0
e 121 150 1.0
e 121 114 1.0
e 121 155 2.0
e 121 45 2.0
e 121 133 2.0
e 121 152 1.0
e 121 130 1.0
e 122 50 1.0
e 122 115 2.0
e 122 116 1.0
e 122 11 3.0
e 122 150 2.0
e 122 94 1.0
e 122 127 1.0
e 122 14 1.0
e 123 127 1.0
e 123 95 1.0
e 123 64 33.0
e 123 145 1.0
e 123 138 1.0
e 123 144 3.0
e 123 121 1.0
e 123 124 1.0
e 124 45 1.0
e 124 81 1.0
e 124 63 1.0
e 124 41 1.0
e 124 155 1.0
e 124 17 1.0
e 124 138 2.0
e 124 56 1.0
e 125 136 1.0
e 125 128 1.0
e 125 2 1.0
e 125 7 1.0
e 125 150 1.0
e 125 158 1.0
e 125 119 1.0
e 126 35 48.0
e 126 91 29.0
e 126 127 1.0
e 126 117 1.0
e 126 47 1.0
e 126 79 1.0
e 126 31 42.0
e 127 44 1.0
e 127 150 1.0
e 127 71 1.0
e 127 20 7.0
e 127 55 1.0
e 128 19 1.0
e 128 157 1.0
e 128 15 1.0
e 128 122 1.0
e 128 100 1.0
e 128 24 1.0
e 128 71 1.0
e 128 80 1.0
e 129 55 1.0
e 129 7 1.0
e 129 24 1.0
e 129 106 1.0
e 129 66 1.0
e 129 115 1.0
e 130 66 2.0
e 130 148 2.0
e 130 127 2.0
e 130 103 3.0
e 130 26 2.0
e 130 158 2.0
e 130 53 1.0
e 130 2 1.0
e 131 39 29.0
e 131 45 37.0
e 131 21 15.0
e 131 103 34.0
e 131 114 44.0
e 131 98 39.0
e 131 84 7.0
e 131 93 12.0
e 132 71 1.0
e 132 32 1.0
e 132 84 2.0
e 132 3 2.0
e 132 55 2.0
e 132 118 1.0
e 132 80 2.0
e 133 138 2.0
e 133 68 1.0
e 133 24 1.0
e 133 46 1.0
e 133 44 1.0
e 133 59 1.0
e 133 93 1.0
e 134 14 44.0
e 134 94 9.0
e 134 18 24.0
e 134 136 42.0
e 134 23 16.0
e 134 68 23.0
e 134 116 37.0
e 134 95 27.0
e 135 6 1.0
e 135 80 1.0
e 135 124 1.0
e 135 123 1.0
e 135 132 1.0
e 135 39 1.0
e 135 77 3.0
e 136 25 49.0
e 136 153 26.0
e 136 96 3.0
e 136 41 1.0
e 136 131 1.0
e 136 13 1.0
e 136 142 1.0
e 136 91 38.0
e 137 17 1.0
e 137 71 2.0
e 137 38 2.0
e 137 28 38.0
e 137 42 1.0
e 137 156 1.0
e 137 48 1.0
e 137 4 1.0
e 138 33 2.0
e 138 144 1.0
e 138 82 1.0
e 138 107 1.0
e 138 156 2.0
e 138 105 2.0
e 138 61 19.0
e 139 25 24.0
e 139 96 1.0
e 139 28 12.0
e 139 27 2.0
e 139 38 1.0
e 139 8 1.0
e 139 0 1.0
e 139 30 3.0
e 140 110 1.0
e 140 14 1.0
e 140 151 30.0
e 140 35 13.0
e 140 142 1.0
e 140 15 1.0
e 140 9 1.0
e 140 18 1.0
e 141 62 1.0
e 141 9 1.0
e 141 56 1.0
e 141 46 1.0
e 141 65 2.0
e 141 157 1.0
e 141 37 1.0
e 141 147 1.0
e 142 61 12.0
e 142 66 1.0
e 142 33 1.0
e 142 46 1.0
e 142 45 1.0
e 142 4 1.0
e 142 117 1.0
e 142 13 1.0
e 143 131 2.0
e 143 48 1.0
e 143 111 1.0
e 143 114 1.0
e 143 91 37.0
e 143 85 1.0
e 144 81 1.0
e 144 151 49.0
e 144 114 1.0
e 144 50 1.0
e 144 53 1.0
e 144 74 2.0
e 144 129 1.0
e 144 60 2.0
e 145 154 1.0
e 145 17 1.0
e 145 52 1.0
e 145 68 1.0
e 145 46 1.0
e 145 132 1.0
e 145 50 2.0
e 145 47 1.0
e 146 36 46.0
e 146 27 2.0
e 146 48 1.0
e 146 144 1.0
e 146 37 1.0
e 146 153 47.0
e 146 95 1.0
e 146 70 1.0
e 147 28 37.0
e 147 158 1.0
e 147 47 1.0
e 147 142 1.0
e 147 154 1.0
e 147 114 1.0
e 147 31 11.0
e 147 91 44.0
e 148 97 1.0
e 148 99 10.0
e 148 67 1.0
e 148 57 1.0
e 148 116 1.0
e 148 61 38.0
e 148 129 1.0
e 149 111 1.0
e 149 2 1.0
e 149 84 1.0
e 149 24 2.0
e 149 35 20.0
e 149 13 2.0
e 149 14 1.0
e 149 72 1.0
e 150 54 1.0
e 150 70 1.0
e 150 59 1.0
e 150 52 2.0
e 150 112 1.0
e 150 32 1.0
e 150 46 2.0
e 151 122 11.0
e 151 53 44.0
e 151 95 34.0
e 151 63 6.0
e 151 119 22.0
e 151 113 7.0
e 151 76 39.0
e 152 33 1.0
e 152 144 1.0
e 152 89 1.0
e 152 25 4.0
e 152 49 1.0
e 152 131 6.0
e 152 44 1.0
e 152 61 27.0
e 153 19 36.0
e 153 70 41.0
e 153 151 27.0
e 153 7 40.0
e 153 155 47.0
e 153 73 23.0
e 153 65 49.0
e 153 4 25.0
e 154 36 12.0
e 154 55 1.0
e 154 73 1.0
e 154 152 1.0
e 154 120 3.0
e 154 12 1.0
e 154 121 1.0
e 154 128 1.0
e 155 138 1.0
e 155 118 1.0
e 155 98 1.0
e 155 44 1.0
e 155 65 1.0
e 155 8 1.0
e 155 134 33.0
e 155 129 1.0
e 156 33 1.0
e 156 127 1.0
e 156 48 1.0
e 156 67 1.0
e 156 73 1.0
e 156 1 1.0
e 156 117 1.0
e 156 22 45.0
e 157 20 34.0
e 157 116 1.0
e 157 91 19.0
e 157 101 1.0
e 157 138 2.0
e 157 5 1.0
e 157 120 15.0
e 157 7 1.0
e 158 94 1.0
e 158 149 1.0
e 158 52 1.0
e 158 132 1.0
e 158 134 8.0
e 158 97 3.0
e 158 116 1.0
e 158 112 1.0
e 159 59 1.0
e 159 151 44.0
e 159 47 2.0
e 159 107 1.0
e 159 109 1.0
e 159 123 1.0
e 159 29 1.0
